Translating instance to solver...

Set parameter TimeLimit to value 28800
Gurobi Optimizer version 11.0.2 build v11.0.2rc0 (linux64 - "Ubuntu 22.04.4 LTS")

CPU model: Intel(R) Xeon(R) Gold 5120 CPU @ 2.20GHz, instruction set [SSE2|AVX|AVX2|AVX512]
Thread count: 28 physical cores, 56 logical processors, using up to 28 threads

Academic license 2463511 - for non-commercial use only - registered to lu___@cefet-rj.br
Optimize a model with 181495 rows, 83733 columns and 404996 nonzeros
Model fingerprint: 0x146e533a
Variable types: 1 continuous, 83732 integer (83640 binary)
Coefficient statistics:
  Matrix range     [1e+00, 1e+05]
  Objective range  [3e-01, 8e-01]
  Bounds range     [1e+00, 8e+01]
  RHS range        [1e+00, 9e+01]
Presolve removed 148772 rows and 70390 columns
Presolve time: 3.30s
Presolved: 32723 rows, 13343 columns, 92847 nonzeros
Variable types: 0 continuous, 13343 integer (13252 binary)

Root relaxation: objective 1.585705e+00, 2527 iterations, 0.23 seconds (0.25 work units)
Total elapsed time = 5.02s (DegenMoves)

    Nodes    |    Current Node    |     Objective Bounds      |     Work
 Expl Unexpl |  Obj  Depth IntInf | Incumbent    BestBd   Gap | It/Node Time

     0     0    1.58571    0  102          -    1.58571      -     -    6s
     0     0    1.83535    0  169          -    1.83535      -     -    8s
     0     0    1.83535    0  119          -    1.83535      -     -    9s
     0     0    1.83535    0  117          -    1.83535      -     -    9s
H    0     0                       2.7353460    1.83535  32.9%     -   12s
     0     0    1.83535    0  116    2.73535    1.83535  32.9%     -   12s
H    0     0                       1.9794550    1.83535  7.28%     -   19s
     0     0    1.83535    0  141    1.97946    1.83535  7.28%     -   20s
     0     0    1.83535    0  133    1.97946    1.83535  7.28%     -   21s
     0     0    1.83535    0   88    1.97946    1.83535  7.28%     -   23s
     0     0    1.83535    0  170    1.97946    1.83535  7.28%     -   24s
     0     0    1.83535    0  150    1.97946    1.83535  7.28%     -   26s
     0     0    1.83535    0  124    1.97946    1.83535  7.28%     -   27s
     0     0    1.83535    0  110    1.97946    1.83535  7.28%     -   27s
     0     0    1.83535    0   66    1.97946    1.83535  7.28%     -   28s
     0     0    1.83535    0  111    1.97946    1.83535  7.28%     -   29s
     0     0    1.83535    0   50    1.97946    1.83535  7.28%     -   30s
     0     0    1.83535    0   83    1.97946    1.83535  7.28%     -   31s
     0     0    1.83535    0  104    1.97946    1.83535  7.28%     -   32s
     0     0    1.83535    0  123    1.97946    1.83535  7.28%     -   32s
     0     0    1.83535    0   97    1.97946    1.83535  7.28%     -   34s
     0     0    1.83535    0   96    1.97946    1.83535  7.28%     -   34s
     0     2    1.83535    0   72    1.97946    1.83535  7.28%     -   36s
    31    46    1.83535    5  184    1.97946    1.83535  7.28%  1507   41s
    87    80    1.83535    7  164    1.97946    1.83535  7.28%  1269   52s
   115    90    1.83535    7  164    1.97946    1.83535  7.28%  1104   61s
   262   162    1.83535   10   95    1.97946    1.83535  7.28%   741   65s
   523   259    1.84419   15  328    1.97946    1.83535  7.28%   529   70s
   853   384    1.83535   23  223    1.97946    1.83535  7.28%   411   75s
  1514   592    1.83839   30  384    1.97946    1.83535  7.28%   307   81s
  1958   741    1.84155   37  207    1.97946    1.83535  7.28%   293   85s
  2390  1036    1.97945   11   75    1.97946    1.83535  7.28%   277   90s
  3300  1478    1.97945   38   92    1.97946    1.83535  7.28%   255   95s
  3636  1548    1.97945   46  140    1.97946    1.83535  7.28%   248  108s
  3740  1836    1.97945   47   95    1.97946    1.83535  7.28%   246  112s
  4196  1837    1.97945   11  133    1.97946    1.83535  7.28%   241  117s
  4205  1844    1.97945   25  134    1.97946    1.83535  7.28%   242  120s
  4220  1854    1.97945   42   77    1.97946    1.83535  7.28%   241  125s

Cutting planes:
  Learned: 143
  Gomory: 17
  Implied bound: 13
  Projected implied bound: 1
  MIR: 5
  StrongCG: 1
  Flow cover: 43
  Inf proof: 2
  Zero half: 90
  RLT: 127

Explored 4221 nodes (1130573 simplex iterations) in 125.72 seconds (110.71 work units)
Thread count was 28 (of 56 available processors)

Solution count 2: 1.97946 2.73535 

Optimal solution found (tolerance 1.00e-04)
Best objective 1.979455000000e+00, best bound 1.979455000000e+00, gap 0.0000%

Solver Wallclock Time (for this epsilon): 125.78460001945496 s
Python wallclock Time (for this epsilon): 139.6946098804474 s


Total Elapsed Time (since program call): 4685.642727851868 s

Results:

I = 1.9794550000000002 mA
C = 50.0 points
C ~= 20.0 km^2

Minimum Epsilon for this instance = 10
Maximum Epsilon for this instance = 100

Current Epsilon = 50


Preprocessing Time (for this epsilon): 0.0164182186126709 s


Updated solution vectors:
sol_I = [-1.529455,-1.529455,-1.835346,-1.9794549999999997,-1.9794550000000002]
sol_C = [17.0,22.0,30.0,41.0,50.0]
sol_eps = [10,20,30,40,50]
sol_gap = [0.0,0.0,0.0,0.0,4.440892098500626e-16]
